0
57
143
142
124
13
121
49
136
133
109
147
10
97
53
87
1
113
115
145
33
39
94
95
123
73
42
91
88
32
8
92
83
47
9
64
30
69
27
74
90
98
71
140
16
43
51
84
36
128
28
29
61
130
126
79
35
6
85
78
96
80
93
21
46
75
56
104
81
19
131
132
127
22
86
111
70
148
25
26
108
62
67
102
103
137
89
55
100
66
60
105
23
54
82
65
118
149
138
134
31
77
50
76
135
11
40
59
99
139
120
17
3
5
58
141
116
107
18
119
44
125
24
45
12
110
72
146
129
15
114
122
7
4
68
117
52
38
2
20
34
106
101
41
48
63
37
112
14
144
